results_rootrelaxation/bin012_060_048.srr.sol
solution status: optimal solution found
objective value:                     2.14285714285714
_var726_                            0.142857142857143 	(obj:0)
_var732_                            0.142857142857143 	(obj:0)
_var733_                            0.571428571428571 	(obj:0)
_var739_                            0.285714285714285 	(obj:0)
_var760_                            0.285714285714286 	(obj:0)
_var762_                            0.142857142857143 	(obj:0)
_var771_                            0.285714285714286 	(obj:0)
_var774_                            0.285714285714286 	(obj:0)
_var776_                            0.571428571428571 	(obj:0)
_var786_                            0.142857142857143 	(obj:1)
_var790_                            0.142857142857143 	(obj:1)
_var797_                            0.285714285714286 	(obj:0)
_var800_                            0.285714285714286 	(obj:0)
_var801_                            0.142857142857143 	(obj:2)
_var808_                            0.142857142857143 	(obj:0)
_var836_                            0.285714285714286 	(obj:0)
_var839_                            0.142857142857143 	(obj:0)
_var843_                            0.142857142857143 	(obj:0)
_var847_                            0.142857142857143 	(obj:0)
_var851_                            0.142857142857143 	(obj:0)
_var852_                            0.142857142857143 	(obj:0)
_var856_                            0.285714285714286 	(obj:1)
_var857_                            0.142857142857143 	(obj:0)
_var858_                            0.142857142857143 	(obj:0)
_var860_                            0.285714285714286 	(obj:0)
_var865_                            0.142857142857143 	(obj:0)
_var867_                            0.714285714285714 	(obj:0)
_var870_                            0.142857142857143 	(obj:0)
_var877_                            0.142857142857143 	(obj:1)
_var878_                            0.142857142857143 	(obj:1)
_var880_                            0.285714285714286 	(obj:0)
_var882_                            0.571428571428571 	(obj:0)
_var883_                            0.285714285714286 	(obj:0)
_var885_                            0.285714285714286 	(obj:0)
_var888_                            0.142857142857143 	(obj:2)
_var890_                            0.142857142857143 	(obj:0)
_var898_                            0.142857142857143 	(obj:1)
_var907_                            0.285714285714286 	(obj:0)
_var913_                            0.142857142857143 	(obj:1)
_var918_                            0.428571428571429 	(obj:0)
_var921_                            0.142857142857143 	(obj:0)
_var923_                            0.142857142857143 	(obj:0)
_var926_                            0.142857142857143 	(obj:1)
_var932_                            0.142857142857143 	(obj:0)
_var934_                            0.142857142857143 	(obj:1)
_var935_                            0.142857142857143 	(obj:0)
_var937_                            0.142857142857143 	(obj:1)
_var938_                            0.142857142857143 	(obj:0)
_var939_                            0.142857142857143 	(obj:0)
